c description: Random 3-CNF over 16 variables and 68 clauses
c generator: CNFgen (0.9.2)
c copyright: (C) 2012-2022 Massimo Lauria <massimo.lauria@uniroma1.it>
c url: https://massimolauria.net/cnfgen
c command line: cnfgen --output CNF_4.28/16_bit_68_559.cnf randkcnf 3 16 68
c
p cnf 16 68
2 12 16 0
-3 4 7 0
-2 11 -12 0
-2 5 13 0
-1 14 16 0
4 5 -6 0
1 -2 6 0
-3 -9 -10 0
3 5 6 0
2 8 -15 0
-3 8 -16 0
-4 -11 14 0
-4 5 12 0
-4 5 -11 0
8 14 15 0
1 -6 -13 0
-11 -12 -13 0
3 6 -15 0
-10 -12 16 0
-3 -8 -12 0
-2 -5 -10 0
4 11 15 0
1 4 12 0
1 -11 -12 0
2 3 11 0
6 -14 16 0
-5 12 -16 0
-1 -5 16 0
-3 4 15 0
-1 -2 -11 0
-3 -9 12 0
-11 -14 -15 0
2 -3 -14 0
-6 -15 -16 0
5 -10 11 0
-3 7 16 0
-4 -13 16 0
-5 -12 -16 0
-4 -6 -7 0
10 -14 16 0
12 -14 15 0
7 -9 10 0
-5 8 9 0
4 5 -9 0
2 7 -10 0
8 -11 -12 0
-6 7 -10 0
-5 -8 9 0
-6 8 -16 0
1 12 13 0
-1 4 -10 0
3 -5 -6 0
-7 9 11 0
-7 -9 -14 0
2 -14 15 0
-1 5 14 0
2 -3 10 0
5 8 -16 0
-4 -5 16 0
-1 10 -15 0
4 -8 14 0
2 9 -13 0
-1 -5 -14 0
-6 -11 -16 0
-3 9 15 0
-3 -11 -14 0
4 -12 -16 0
1 4 5 0
